5 5
1 79 0 49 3 32 4 61 2 42
3 1 0 63 4 35 2 51 1 71
3 45 1 77 4 65 2 14 0 93
0 3 4 24 2 65 1 48 3 10
4 13 1 73 0 14 2 10 3 40
-1
0 2 3 5
0 1 3 4 5
0 2 4 5
0 4 5
0 2 5
-2
148 228 369
1 155 175 271
159 220 359
208 177
98 155

348 6
15 6 1 22 14
0 11 21 18 9
8 17 13 23 4
5 10 2 19 24
7 20 16 12 3
